[vasp]
GG = 11
TT = 11

[yy]
HH = 11
YY = 22
